# Solution for model GasLib-40
# Objective value = 5.4751966952885873e+01
loadshed[innode_1] 0
loadshed[innode_2] 0
loadshed[innode_3] 0
loadshed[innode_4] 0
loadshed[innode_5] 0
loadshed[innode_6] 0
loadshed[innode_7] 0
loadshed[innode_8] 0
loadshed[source_1] -8.8237533298097137e-02
loadshed[source_2] 7.0668905015502825e-02
loadshed[source_3] 3.6390217720481333e-01
loadshed[sink_1] 4.6334820364972540e-01
loadshed[sink_2] 0
loadshed[sink_3] 0
loadshed[sink_4] 0
loadshed[sink_5] 0
loadshed[sink_6] 0
loadshed[sink_7] 0
loadshed[sink_8] 0
loadshed[sink_9] 0
loadshed[sink_10] 0
loadshed[sink_11] 0
loadshed[sink_12] 1
loadshed[sink_13] 0
loadshed[sink_14] 0
loadshed[sink_15] 0
loadshed[sink_16] 0
loadshed[sink_17] 0
loadshed[sink_18] 0
loadshed[sink_19] 0
loadshed[sink_20] 0
loadshed[sink_21] 1
loadshed[sink_22] 0
loadshed[sink_23] 0
loadshed[sink_24] 8.8454276926558872e-01
loadshed[sink_25] 0
loadshed[sink_26] 0
loadshed[sink_27] 0
loadshed[sink_28] 0
loadshed[sink_29] 0
flow[source_1,sink_3] 1.7203977392729985e+02
flow[innode_1,sink_16] 1.6354166666666970e+01
flow[innode_6,sink_13] 1.3918285167136778e+01
flow[sink_13,sink_14] -2.4358814995298896e+00
flow[sink_14,sink_10] -1.8790048166196584e+01
flow[sink_25,sink_26] 1.0442492784634226e+02
flow[sink_26,sink_9] 1.6354166666669244e+01
flow[sink_9,sink_18] 0
flow[sink_26,sink_4] 7.1716594513006328e+01
flow[sink_4,sink_20] 5.5362427846339713e+01
flow[sink_18,sink_6] -1.6354166666667879e+01
flow[sink_25,innode_8] -1.3933144059396346e+02
flow[sink_6,sink_7] -5.7838992919479665e+01
flow[sink_6,sink_22] 2.5130659586145118e+01
flow[sink_7,sink_24] 1.8882067943023513e+00
flow[sink_22,sink_1] 8.77649291947845
flow[sink_24,sink_21] 0
flow[sink_21,sink_12] 0
flow[sink_7,sink_5] -7.6081366380448671e+01
flow[sink_5,sink_17] -9.2435533047115342e+01
flow[sink_17,sink_4] 0
flow[sink_17,sink_8] -1.0878969971378217e+02
flow[sink_3,sink_23] 16.3541666666697
flow[sink_8,sink_20] -1.2514386638044880e+02
flow[sink_25,sink_20] 8.6135605200775728e+01
flow[sink_25,sink_15] -8.1501544286957639e+01
flow[sink_15,sink_29] -5.5491220967832461e+01
flow[sink_29,sink_28] 1.6354166666667879e+01
flow[sink_29,sink_2] 5.8718656652458534e+01
flow[sink_2,sink_15] 4.2364489985791863e+01
flow[sink_29,innode_7] -1.4691821095362553e+02
flow[innode_4,sink_19] 3.8208130458877555e+01
flow[sink_19,innode_3] 0
flow[innode_4,innode_5] 6.2352751040653160e+01
flow[sink_27,innode_5] -6.2352751040653160e+01
flow[sink_27,sink_19] 4.5998584373986489e+01
flow[sink_10,sink_11] 3.2708333333333641e+01
flow[sink_10,innode_2] -6.7852548166197082e+01
flow[sink_10,innode_3] 0
flow[innode_6,sink_25] -1.3918285167136778e+01
flow[sink_11,innode_1] 1.6354166666666970e+01
flow[sink_19,innode_2] 6.7852548166197082e+01
flow[source_3,innode_4] 1.0056088149953072e+02
flow[source_2,innode_7] 1.4691821095362553e+02
flow[sink_3,innode_8] 1.3933144059396346e+02
pressure[innode_1] 75.7273525618504
pressure[innode_2] 7.9465341280239585e+01
pressure[innode_3] 7.5879053869453941e+01
pressure[innode_4] 81.01325
pressure[innode_5] 80.9703604899635
pressure[innode_6] 7.5062680937894072e+01
pressure[innode_7] 81.01325
pressure[innode_8] 8.0438186757336823e+01
pressure[source_1] 81.01325
pressure[source_2] 81.01325
pressure[source_3] 81.01325
pressure[sink_1] 1.0132500000000002e+00
pressure[sink_2] 7.5596353567390523e+01
pressure[sink_3] 8.0438186757336823e+01
pressure[sink_4] 5.8589861157819236e+01
pressure[sink_5] 3.4816751407488859e+01
pressure[sink_6] 2.3811145815324308e+00
pressure[sink_7] 3.1751060870241621e+00
pressure[sink_8] 4.5807448475166460e+01
pressure[sink_9] 6.6729255511093029e+01
pressure[sink_10] 7.5879053869453941e+01
pressure[sink_11] 75.7273525618504
pressure[sink_12] 1.01325
pressure[sink_13] 7.4985951757729168e+01
pressure[sink_14] 7.4990310975163808e+01
pressure[sink_15] 7.5458042844570116e+01
pressure[sink_16] 7.4705702727032715e+01
pressure[sink_17] 4.1702530476275534e+01
pressure[sink_18] 1.9444096387791912e+00
pressure[sink_19] 7.9465341280239585e+01
pressure[sink_20] 5.4528216029771635e+01
pressure[sink_21] 1.01325
pressure[sink_22] 1.5841236211467968e+00
pressure[sink_23] 8.0273468745677036e+01
pressure[sink_24] 1.01325
pressure[sink_25] 7.5062680937894072e+01
pressure[sink_26] 6.7708094595035448e+01
pressure[sink_27] 8.0452947871821564e+01
pressure[sink_28] 76.7884811348035
pressure[sink_29] 7.7083763408420680e+01
interdiction[source_1,sink_3] 0
interdiction[innode_1,sink_16] 0
interdiction[innode_6,sink_13] 0
interdiction[sink_13,sink_14] 0
interdiction[sink_14,sink_10] 0
interdiction[sink_25,sink_26] 0
interdiction[sink_26,sink_9] 0
interdiction[sink_9,sink_18] 1
interdiction[sink_26,sink_4] 0
interdiction[sink_4,sink_20] 0
interdiction[sink_18,sink_6] 0
interdiction[sink_25,innode_8] 0
interdiction[sink_6,sink_7] 0
interdiction[sink_6,sink_22] 0
interdiction[sink_7,sink_24] 0
interdiction[sink_22,sink_1] 0
interdiction[sink_24,sink_21] 0
interdiction[sink_21,sink_12] 0
interdiction[sink_7,sink_5] 0
interdiction[sink_5,sink_17] 0
interdiction[sink_17,sink_4] 1
interdiction[sink_17,sink_8] 0
interdiction[sink_3,sink_23] 0
interdiction[sink_8,sink_20] 0
interdiction[sink_25,sink_20] 0
interdiction[sink_25,sink_15] 0
interdiction[sink_15,sink_29] 0
interdiction[sink_29,sink_28] 0
interdiction[sink_29,sink_2] 0
interdiction[sink_2,sink_15] 0
interdiction[sink_29,innode_7] 0
interdiction[innode_4,sink_19] 0
interdiction[sink_19,innode_3] 1
interdiction[innode_4,innode_5] 0
interdiction[sink_27,innode_5] 0
interdiction[sink_27,sink_19] 0
interdiction[sink_10,sink_11] 0
interdiction[sink_10,innode_2] 0
interdiction[sink_10,innode_3] 0
interdiction[innode_6,sink_25] 0
interdiction[sink_11,innode_1] 0
interdiction[sink_19,innode_2] 0
interdiction[source_3,innode_4] 0
interdiction[source_2,innode_7] 0
interdiction[sink_3,innode_8] 0
WCcheckFlow[source_1,sink_3] 39
WCcheckFlow[innode_1,sink_16] 1
WCcheckFlow[innode_6,sink_13] 13
WCcheckFlow[sink_13,sink_14] 12
WCcheckFlow[sink_14,sink_10] 11
WCcheckFlow[sink_25,sink_26] 15
WCcheckFlow[sink_26,sink_9] 1
WCcheckFlow[sink_9,sink_18] 0
WCcheckFlow[sink_26,sink_4] 13
WCcheckFlow[sink_4,sink_20] 12
WCcheckFlow[sink_18,sink_6] -1
WCcheckFlow[sink_25,innode_8] -36
WCcheckFlow[sink_6,sink_7] -4
WCcheckFlow[sink_6,sink_22] 2
WCcheckFlow[sink_7,sink_24] 3
WCcheckFlow[sink_22,sink_1] 1
WCcheckFlow[sink_24,sink_21] 2
WCcheckFlow[sink_21,sink_12] 1
WCcheckFlow[sink_7,sink_5] -8
WCcheckFlow[sink_5,sink_17] -9
WCcheckFlow[sink_17,sink_4] 0
WCcheckFlow[sink_17,sink_8] -10
WCcheckFlow[sink_3,sink_23] 1
WCcheckFlow[sink_8,sink_20] -11
WCcheckFlow[sink_25,sink_20] 0
WCcheckFlow[sink_25,sink_15] 6
WCcheckFlow[sink_15,sink_29] 5
WCcheckFlow[sink_29,sink_28] 1
WCcheckFlow[sink_29,sink_2] 1
WCcheckFlow[sink_2,sink_15] 0
WCcheckFlow[sink_29,innode_7] 2
WCcheckFlow[innode_4,sink_19] -4
WCcheckFlow[sink_19,innode_3] 0
WCcheckFlow[innode_4,innode_5] 2
WCcheckFlow[sink_27,innode_5] -1
WCcheckFlow[sink_27,sink_19] 0
WCcheckFlow[sink_10,sink_11] 3
WCcheckFlow[sink_10,innode_2] 6
WCcheckFlow[sink_10,innode_3] 1
WCcheckFlow[innode_6,sink_25] -14
WCcheckFlow[sink_11,innode_1] 2
WCcheckFlow[sink_19,innode_2] -5
WCcheckFlow[source_3,innode_4] -1
WCcheckFlow[source_2,innode_7] -1
WCcheckFlow[sink_3,innode_8] 37
